c instance by G2
c solution = 100001011100100101111
c Known solution cost is 893 
p cnf 21 30
w 47 75 30 93 11 17 45 25 33 87 33 44 88 66 33 10 25 5 18 58 50
-16 -15 -10 0
21 19 7 0
3 21 -10 0
-7 -2 -16 0
-21 -17 -13 0
-10 21 -11 0
17 11 10 0
-2 -9 3 0
13 -17 5 0
-13 16 7 0
-10 -6 -2 0
-5 20 12 0
3 -21 -11 0
-13 3 20 0
-3 -21 -20 0
9 -6 14 0
-19 -16 6 0
3 -14 -20 0
10 -2 19 0
-20 17 1 0
17 -10 -5 0
-20 13 15 0
-7 3 15 0
-19 -15 6 0
-4 -9 -6 0
-9 18 5 0
-21 -13 8 0
-21 -10 -12 0
-10 -6 20 0
-20 19 17 0
